(set-logic HORN)
(declare-fun assign_139_22_5_abs01 (Int Int Int Int Int Int Int) Bool)
(declare-fun assert_130_21_5_abs01 (Int Int Int Int Int Int Int) Bool)
(declare-fun while_142_20_1_abs01 (Int Int Int Int Int Int Int) Bool)
(declare-fun assign_104_19_1_abs01 (Int Int Int Int Int Int Int) Bool)
(declare-fun assign_95_16_5_abs01 (Int Int Int Int Int Int Int) Bool)
(declare-fun assign_86_15_5_abs01 (Int Int Int Int Int Int Int) Bool)
(declare-fun arrayassign_77_14_5_abs01 (Int Int Int Int Int Int Int) Bool)
(declare-fun while_98_13_1_abs01 (Int Int Int Int Int Int Int) Bool)
(declare-fun assign_55_11_1_abs01 (Int Int Int Int Int Int Int) Bool)
(declare-fun assign_43_10_1_abs01 (Int Int Int Int Int Int Int) Bool)
(declare-fun assign_37_9_1_abs01 (Int Int Int Int Int Int Int) Bool)
(declare-fun end_abs01 (Int Int Int Int Int Int Int) Bool)
(declare-fun start_abs01 (Int Int Int Int Int Int Int) Bool)
(assert (forall ((a_copy (Array Int Int)) (a (Array Int Int)) (size Int) (j Int) (i Int) (vabs_f_f Int) (vabs_s_f_f Int)) (start_abs01 vabs_f_f (select a_copy vabs_f_f) vabs_s_f_f (select a vabs_s_f_f) size j i)))
(assert (forall ((i Int) (j Int) (size Int) (a (Array Int Int)) (a_copy (Array Int Int)) (vabs_0_f_f Int) (vabs_0_s_f_f Int)) (=> (start_abs01 vabs_0_f_f (select a_copy vabs_0_f_f) vabs_0_s_f_f (select a vabs_0_s_f_f) size j i) (assign_37_9_1_abs01 vabs_0_f_f (select a_copy vabs_0_f_f) vabs_0_s_f_f (select a vabs_0_s_f_f) size j i))))
(assert (forall ((i Int) (j Int) (size Int) (a (Array Int Int)) (a_copy (Array Int Int)) (vabs_0_f_f Int) (vabs_0_s_f_f Int)) (=> (assign_37_9_1_abs01 vabs_0_f_f (select a_copy vabs_0_f_f) vabs_0_s_f_f (select a vabs_0_s_f_f) size j i) (assign_43_10_1_abs01 vabs_0_f_f (select a_copy vabs_0_f_f) vabs_0_s_f_f (select a vabs_0_s_f_f) size j 1))))
(assert (forall ((i Int) (j Int) (size Int) (a (Array Int Int)) (a_copy (Array Int Int)) (vabs_0_f_f Int) (vabs_0_s_f_f Int)) (=> (assign_43_10_1_abs01 vabs_0_f_f (select a_copy vabs_0_f_f) vabs_0_s_f_f (select a vabs_0_s_f_f) size j i) (assign_55_11_1_abs01 vabs_0_f_f (select a_copy vabs_0_f_f) vabs_0_s_f_f (select a vabs_0_s_f_f) size 0 i))))
(assert (forall ((rnd Int) (i Int) (j Int) (size Int) (a (Array Int Int)) (a_copy (Array Int Int)) (vabs_0_f_f Int) (vabs_0_s_f_f Int)) (=> (assign_55_11_1_abs01 vabs_0_f_f (select a_copy vabs_0_f_f) vabs_0_s_f_f (select a vabs_0_s_f_f) size j i) (while_98_13_1_abs01 vabs_0_f_f (select a_copy vabs_0_f_f) vabs_0_s_f_f (select a vabs_0_s_f_f) rnd j i))))
(assert (forall ((a_copy (Array Int Int)) (a (Array Int Int)) (size Int) (j Int) (i Int) (vabs_0_f_f Int) (vabs_0_s_f_f Int)) (=> (and (while_98_13_1_abs01 vabs_0_f_f (select a_copy vabs_0_f_f) vabs_0_s_f_f (select a vabs_0_s_f_f) size j i) (< i size)) (arrayassign_77_14_5_abs01 vabs_0_f_f (select a_copy vabs_0_f_f) vabs_0_s_f_f (select a vabs_0_s_f_f) size j i))))
(assert (forall ((a_copy (Array Int Int)) (a (Array Int Int)) (size Int) (j Int) (i Int) (vabs_0_f_f Int) (vabs_0_s_f_f Int)) (=> (and (while_98_13_1_abs01 vabs_0_f_f (select a_copy vabs_0_f_f) vabs_0_s_f_f (select a vabs_0_s_f_f) size j i) (not (< i size))) (assign_104_19_1_abs01 vabs_0_f_f (select a_copy vabs_0_f_f) vabs_0_s_f_f (select a vabs_0_s_f_f) size j i))))
(assert (forall ((i Int) (j Int) (size Int) (a (Array Int Int)) (a_copy (Array Int Int)) (vabs_0_f_f Int) (vabs_0_s_f_f Int)) (=> (and (arrayassign_77_14_5_abs01 vabs_0_f_f (select a_copy vabs_0_f_f) vabs_0_s_f_f (select a vabs_0_s_f_f) size j i) (arrayassign_77_14_5_abs01 vabs_0_f_f (select a_copy vabs_0_f_f) i (select a i) size j i)) (assign_86_15_5_abs01 vabs_0_f_f (select (store a_copy i (select a i)) vabs_0_f_f) vabs_0_s_f_f (select a vabs_0_s_f_f) size j i))))
(assert (forall ((i Int) (j Int) (size Int) (a (Array Int Int)) (a_copy (Array Int Int)) (vabs_0_f_f Int) (vabs_0_s_f_f Int)) (=> (assign_86_15_5_abs01 vabs_0_f_f (select a_copy vabs_0_f_f) vabs_0_s_f_f (select a vabs_0_s_f_f) size j i) (assign_95_16_5_abs01 vabs_0_f_f (select a_copy vabs_0_f_f) vabs_0_s_f_f (select a vabs_0_s_f_f) size j (+ i 2)))))
(assert (forall ((i Int) (j Int) (size Int) (a (Array Int Int)) (a_copy (Array Int Int)) (vabs_0_f_f Int) (vabs_0_s_f_f Int)) (=> (assign_95_16_5_abs01 vabs_0_f_f (select a_copy vabs_0_f_f) vabs_0_s_f_f (select a vabs_0_s_f_f) size j i) (while_98_13_1_abs01 vabs_0_f_f (select a_copy vabs_0_f_f) vabs_0_s_f_f (select a vabs_0_s_f_f) size (+ j 1) i))))
(assert (forall ((i Int) (j Int) (size Int) (a (Array Int Int)) (a_copy (Array Int Int)) (vabs_0_f_f Int) (vabs_0_s_f_f Int)) (=> (assign_104_19_1_abs01 vabs_0_f_f (select a_copy vabs_0_f_f) vabs_0_s_f_f (select a vabs_0_s_f_f) size j i) (while_142_20_1_abs01 vabs_0_f_f (select a_copy vabs_0_f_f) vabs_0_s_f_f (select a vabs_0_s_f_f) size j 0))))
(assert (forall ((a_copy (Array Int Int)) (a (Array Int Int)) (size Int) (j Int) (i Int) (vabs_0_f_f Int) (vabs_0_s_f_f Int)) (=> (and (while_142_20_1_abs01 vabs_0_f_f (select a_copy vabs_0_f_f) vabs_0_s_f_f (select a vabs_0_s_f_f) size j i) (< i size)) (assert_130_21_5_abs01 vabs_0_f_f (select a_copy vabs_0_f_f) vabs_0_s_f_f (select a vabs_0_s_f_f) size j i))))
(assert (forall ((a_copy (Array Int Int)) (a (Array Int Int)) (size Int) (j Int) (i Int) (vabs_0_f_f Int) (vabs_0_s_f_f Int)) (=> (and (while_142_20_1_abs01 vabs_0_f_f (select a_copy vabs_0_f_f) vabs_0_s_f_f (select a vabs_0_s_f_f) size j i) (not (< i size))) (end_abs01 vabs_0_f_f (select a_copy vabs_0_f_f) vabs_0_s_f_f (select a vabs_0_s_f_f) size j i))))
(assert (forall ((i Int) (j Int) (size Int) (a (Array Int Int)) (a_copy (Array Int Int))) (=> (assert_130_21_5_abs01 i (select a_copy i) j (select a j) size j i) (= (select a_copy i) (select a j)))))
(assert (forall ((i Int) (j Int) (size Int) (a (Array Int Int)) (a_copy (Array Int Int)) (vabs_0_f_f Int) (vabs_0_s_f_f Int)) (=> (assert_130_21_5_abs01 vabs_0_f_f (select a_copy vabs_0_f_f) vabs_0_s_f_f (select a vabs_0_s_f_f) size j i) (assign_139_22_5_abs01 vabs_0_f_f (select a_copy vabs_0_f_f) vabs_0_s_f_f (select a vabs_0_s_f_f) size j i))))
(assert (forall ((i Int) (j Int) (size Int) (a (Array Int Int)) (a_copy (Array Int Int)) (vabs_0_f_f Int) (vabs_0_s_f_f Int)) (=> (assign_139_22_5_abs01 vabs_0_f_f (select a_copy vabs_0_f_f) vabs_0_s_f_f (select a vabs_0_s_f_f) size j i) (while_142_20_1_abs01 vabs_0_f_f (select a_copy vabs_0_f_f) vabs_0_s_f_f (select a vabs_0_s_f_f) size j (+ i 1)))))
(check-sat)